c NeuroCodeBench 2.0 CNF formula with verdict Unsat
p cnf 21 21
-1 13 10 2 -16 19 0
-1 -13 10 5 0
-1 -13 -10 -20 3 0
-1 13 10 -2 17 0
1 7 11 8 0
-1 13 10 -2 -17 0
-1 -13 10 -5 0
-1 -13 -10 -20 -3 14 0
-1 13 10 2 -16 -19 0
-1 -13 -10 20 11 0
-1 13 -10 -21 0
1 7 11 -8 0
-1 -13 -10 20 -11 -4 0
-1 13 -10 21 -15 0
-1 -13 -10 -20 -3 -14 0
1 -7 -6 0
-1 13 -10 21 15 0
-1 13 10 2 16 0
1 -7 6 0
1 7 -11 0
-1 -13 -10 20 -11 4 0
